<?xml version="1.0" encoding="UTF-8"?><osil xmlns="os.optimizationservices.org" xmlns:xsi="http://www.w3.org/2001/XMLSchema-instance" xsi:schemaLocation="os.optimizationservices.org http://www.optimizationservices.org/schemas/2.0/OSiL.xsd"><instanceHeader><name>slay04m</name></instanceHeader><instanceData><variables numberOfVariables="44"><var name="x1" lb="2.5" ub="27.5"/><var name="x2" lb="3.5" ub="26.5"/><var name="x3" lb="1.5" ub="28.5"/><var name="x4" lb="1" ub="29"/><var name="x5" lb="3" ub="27"/><var name="x6" lb="2.5" ub="27.5"/><var name="x7" lb="1.5" ub="28.5"/><var name="x8" lb="1.5" ub="28.5"/><var name="b9" type="B" ub="1"/><var name="b10" type="B" ub="1"/><var name="b11" type="B" ub="1"/><var name="b12" type="B" ub="1"/><var name="b13" type="B" ub="1"/><var name="b14" type="B" ub="1"/><var name="b15" type="B" ub="1"/><var name="b16" type="B" ub="1"/><var name="b17" type="B" ub="1"/><var name="b18" type="B" ub="1"/><var name="b19" type="B" ub="1"/><var name="b20" type="B" ub="1"/><var name="b21" type="B" ub="1"/><var name="b22" type="B" ub="1"/><var name="b23" type="B" ub="1"/><var name="b24" type="B" ub="1"/><var name="b25" type="B" ub="1"/><var name="b26" type="B" ub="1"/><var name="b27" type="B" ub="1"/><var name="b28" type="B" ub="1"/><var name="b29" type="B" ub="1"/><var name="b30" type="B" ub="1"/><var name="b31" type="B" ub="1"/><var name="b32" type="B" ub="1"/><var name="x33"/><var name="x34"/><var name="x35"/><var name="x36"/><var name="x37"/><var name="x38"/><var name="x39"/><var name="x40"/><var name="x41"/><var name="x42"/><var name="x43"/><var name="x44"/></variables><objectives><obj maxOrMin="min" constant="1.7661e5" name="defObj_objvar" numberOfObjCoef="20"><coef idx="0">-1.2e3</coef><coef idx="1">-7.8e3</coef><coef idx="2">-3.36e3</coef><coef idx="3">-4.2e2</coef><coef idx="4">-3e3</coef><coef idx="5">-1.17e4</coef><coef idx="6">-4.32e3</coef><coef idx="7">-4.2e2</coef><coef idx="32">300</coef><coef idx="33">2.4e2</coef><coef idx="34">2.1e2</coef><coef idx="35">100</coef><coef idx="36">1.5e2</coef><coef idx="37">1.2e2</coef><coef idx="38">300</coef><coef idx="39">2.4e2</coef><coef idx="40">2.1e2</coef><coef idx="41">100</coef><coef idx="42">1.5e2</coef><coef idx="43">1.2e2</coef></obj></objectives><constraints numberOfConstraints="54"><con name="e2" lb="0"/><con name="e3" lb="0"/><con name="e4" lb="0"/><con name="e5" lb="0"/><con name="e6" lb="0"/><con name="e7" lb="0"/><con name="e8" lb="0"/><con name="e9" lb="0"/><con name="e10" lb="0"/><con name="e11" lb="0"/><con name="e12" lb="0"/><con name="e13" lb="0"/><con name="e14" lb="0"/><con name="e15" lb="0"/><con name="e16" lb="0"/><con name="e17" lb="0"/><con name="e18" lb="0"/><con name="e19" lb="0"/><con name="e20" lb="0"/><con name="e21" lb="0"/><con name="e22" lb="0"/><con name="e23" lb="0"/><con name="e24" lb="0"/><con name="e25" lb="0"/><con name="e26" ub="24"/><con name="e27" ub="26"/><con name="e28" ub="26.5"/><con name="e29" ub="25"/><con name="e30" ub="25.5"/><con name="e31" ub="27.5"/><con name="e32" ub="24"/><con name="e33" ub="26"/><con name="e34" ub="26.5"/><con name="e35" ub="25"/><con name="e36" ub="25.5"/><con name="e37" ub="27.5"/><con name="e38" ub="24.5"/><con name="e39" ub="25.5"/><con name="e40" ub="25.5"/><con name="e41" ub="26"/><con name="e42" ub="26"/><con name="e43" ub="27"/><con name="e44" ub="24.5"/><con name="e45" ub="25.5"/><con name="e46" ub="25.5"/><con name="e47" ub="26"/><con name="e48" ub="26"/><con name="e49" ub="27"/><con name="e50" lb="1" ub="1"/><con name="e51" lb="1" ub="1"/><con name="e52" lb="1" ub="1"/><con name="e53" lb="1" ub="1"/><con name="e54" lb="1" ub="1"/><con name="e55" lb="1" ub="1"/></constraints><linearConstraintCoefficients numberOfValues="168"><start><el mult="49" incr="3">0</el><el mult="6" incr="4">148</el></start><colIdx><el>0</el><el>1</el><el>32</el><el>0</el><el>2</el><el>33</el><el>0</el><el>3</el><el>34</el><el>1</el><el>2</el><el>35</el><el>1</el><el>3</el><el>36</el><el>2</el><el>3</el><el>37</el><el>0</el><el>1</el><el>32</el><el>0</el><el>2</el><el>33</el><el>0</el><el>3</el><el>34</el><el>1</el><el>2</el><el>35</el><el>1</el><el>3</el><el>36</el><el>2</el><el>3</el><el>37</el><el>4</el><el>5</el><el>38</el><el>4</el><el>6</el><el>39</el><el>4</el><el>7</el><el>40</el><el>5</el><el>6</el><el>41</el><el>5</el><el>7</el><el>42</el><el>6</el><el>7</el><el>43</el><el>4</el><el>5</el><el>38</el><el>4</el><el>6</el><el>39</el><el>4</el><el>7</el><el>40</el><el>5</el><el>6</el><el>41</el><el>5</el><el>7</el><el>42</el><el>6</el><el>7</el><el>43</el><el>0</el><el>1</el><el>8</el><el>0</el><el>2</el><el>9</el><el>0</el><el>3</el><el>10</el><el>1</el><el>2</el><el>11</el><el>1</el><el>3</el><el>12</el><el>2</el><el>3</el><el>13</el><el>0</el><el>1</el><el>14</el><el>0</el><el>2</el><el>15</el><el>0</el><el>3</el><el>16</el><el>1</el><el>2</el><el>17</el><el>1</el><el>3</el><el>18</el><el>2</el><el>3</el><el>19</el><el>4</el><el>5</el><el>20</el><el>4</el><el>6</el><el>21</el><el>4</el><el>7</el><el>22</el><el>5</el><el>6</el><el>23</el><el>5</el><el>7</el><el>24</el><el>6</el><el>7</el><el>25</el><el>4</el><el>5</el><el>26</el><el>4</el><el>6</el><el>27</el><el>4</el><el>7</el><el>28</el><el>5</el><el>6</el><el>29</el><el>5</el><el>7</el><el>30</el><el>6</el><el>7</el><el>31</el><el mult="4" incr="6">8</el><el mult="4" incr="6">9</el><el mult="4" incr="6">10</el><el mult="4" incr="6">11</el><el mult="4" incr="6">12</el><el mult="4" incr="6">13</el></colIdx><value><el>-1</el><el mult="2">1</el><el>-1</el><el mult="2">1</el><el>-1</el><el mult="2">1</el><el>-1</el><el mult="2">1</el><el>-1</el><el mult="2">1</el><el>-1</el><el mult="3">1</el><el>-1</el><el mult="2">1</el><el>-1</el><el mult="2">1</el><el>-1</el><el mult="2">1</el><el>-1</el><el mult="2">1</el><el>-1</el><el mult="2">1</el><el>-1</el><el>1</el><el>-1</el><el mult="2">1</el><el>-1</el><el mult="2">1</el><el>-1</el><el mult="2">1</el><el>-1</el><el mult="2">1</el><el>-1</el><el mult="2">1</el><el>-1</el><el mult="3">1</el><el>-1</el><el mult="2">1</el><el>-1</el><el mult="2">1</el><el>-1</el><el mult="2">1</el><el>-1</el><el mult="2">1</el><el>-1</el><el mult="2">1</el><el>-1</el><el mult="2">1</el><el>-1</el><el>30</el><el>1</el><el>-1</el><el>30</el><el>1</el><el>-1</el><el>30</el><el>1</el><el>-1</el><el>30</el><el>1</el><el>-1</el><el>30</el><el>1</el><el>-1</el><el>30</el><el>-1</el><el>1</el><el>30</el><el>-1</el><el>1</el><el>30</el><el>-1</el><el>1</el><el>30</el><el>-1</el><el>1</el><el>30</el><el>-1</el><el>1</el><el>30</el><el>-1</el><el>1</el><el>30</el><el>1</el><el>-1</el><el>30</el><el>1</el><el>-1</el><el>30</el><el>1</el><el>-1</el><el>30</el><el>1</el><el>-1</el><el>30</el><el>1</el><el>-1</el><el>30</el><el>1</el><el>-1</el><el>30</el><el>-1</el><el>1</el><el>30</el><el>-1</el><el>1</el><el>30</el><el>-1</el><el>1</el><el>30</el><el>-1</el><el>1</el><el>30</el><el>-1</el><el>1</el><el>30</el><el>-1</el><el>1</el><el>30</el><el mult="24">1</el></value></linearConstraintCoefficients><quadraticCoefficients numberOfQuadraticTerms="8"><qTerm idx="-1" idxOne="0" idxTwo="0" coef="1.5e2"/><qTerm idx="-1" idxOne="1" idxTwo="1" coef="3.9e2"/><qTerm idx="-1" idxOne="2" idxTwo="2" coef="2.4e2"/><qTerm idx="-1" idxOne="3" idxTwo="3" coef="70"/><qTerm idx="-1" idxOne="4" idxTwo="4" coef="1.5e2"/><qTerm idx="-1" idxOne="5" idxTwo="5" coef="3.9e2"/><qTerm idx="-1" idxOne="6" idxTwo="6" coef="2.4e2"/><qTerm idx="-1" idxOne="7" idxTwo="7" coef="70"/></quadraticCoefficients></instanceData></osil>